

(assert (forall ((_for_it_99 Int) (kfdia Int) (kidia Int) (klev Int) (klon Int) (ncldtop Int))
  (=>
    (and
      (<= 0 _for_it_99)
      (<= (+ _for_it_99 1) 3)
      (<= kidia (+ kfdia (- 1)))
      (<= (+ _for_it_99 2) 4)
      (not (or (exists ((_for_it_101_0 Int)(_for_it_102_0 Int)(_for_it_100_0 Int)(_for_it_101_1 Int)(_for_it_102_1 Int)(_for_it_100_1 Int)) (and (<= _for_it_101_0 4) (<= (+ _for_it_99 1) _for_it_100_0) (<= _for_it_102_1 (+ kfdia (- 1))) (<= _for_it_101_1 4) (<= _for_it_100_0 4) (<= (+ kidia (- 1)) _for_it_102_1) (or (and (= _for_it_99 _for_it_100_1) (= _for_it_102_0 _for_it_102_1) (= _for_it_101_0 _for_it_101_1)) (and (= _for_it_102_0 _for_it_102_1) (= _for_it_99 _for_it_101_1) (= _for_it_100_0 _for_it_100_1)) (and (= _for_it_102_0 _for_it_102_1) (= _for_it_101_0 _for_it_101_1) (= _for_it_100_0 _for_it_100_1)) (and (= _for_it_101_0 (+ _for_it_99 1)) (= _for_it_102_0 _for_it_102_1) (= _for_it_100_0 _for_it_100_1)) (and (= _for_it_102_0 _for_it_102_1) (= _for_it_100_0 (+ _for_it_99 1)) (= _for_it_101_0 _for_it_101_1))) (<= _for_it_102_0 (+ kfdia (- 1))) (<= (+ kidia (- 1)) _for_it_102_0) (<= _for_it_100_1 4) (<= (+ _for_it_99 1) _for_it_101_0) (<= (+ _for_it_99 2) _for_it_100_1) (<= (+ _for_it_99 2) _for_it_101_1))) (exists ((tmp_parfor_52_0 Int)(tmp_parfor_52_1 Int)(_for_it_100_0 Int)(_for_it_100_1 Int)) (and (<= (+ kidia (- 1)) tmp_parfor_52_0) (<= (+ _for_it_99 1) _for_it_100_0) (<= _for_it_100_0 4) (or (and (= _for_it_99 (+ _for_it_99 1)) (= tmp_parfor_52_0 tmp_parfor_52_1) (= _for_it_100_0 _for_it_100_1)) (and (= _for_it_99 (+ _for_it_99 1)) (= _for_it_100_0 (+ _for_it_99 1)) (= tmp_parfor_52_0 tmp_parfor_52_1)) (and (= _for_it_99 _for_it_100_1) (= _for_it_99 (+ _for_it_99 1)) (= tmp_parfor_52_0 tmp_parfor_52_1))) (<= tmp_parfor_52_1 (+ kfdia (- 1))) (<= (+ kidia (- 1)) tmp_parfor_52_1) (<= _for_it_100_1 4) (<= (+ _for_it_99 2) _for_it_100_1) (<= tmp_parfor_52_0 (+ kfdia (- 1))))) (exists ((_for_it_100_0 Int)(_for_it_101_1 Int)(_for_it_102_1 Int)(tmp_parfor_52_0 Int)(_for_it_100_1 Int)) (and (<= (+ kidia (- 1)) tmp_parfor_52_0) (<= (+ _for_it_99 2) _for_it_101_1) (<= (+ _for_it_99 1) _for_it_100_0) (<= _for_it_101_1 4) (<= _for_it_100_0 4) (<= (+ kidia (- 1)) _for_it_102_1) (<= _for_it_100_1 4) (or (and (= tmp_parfor_52_0 _for_it_102_1) (= _for_it_99 _for_it_101_1) (= _for_it_100_0 _for_it_100_1)) (and (= tmp_parfor_52_0 _for_it_102_1) (= _for_it_100_0 (+ _for_it_99 1)) (= _for_it_99 _for_it_101_1)) (and (= _for_it_99 (+ _for_it_99 1)) (= tmp_parfor_52_0 _for_it_102_1) (= _for_it_100_0 _for_it_100_1)) (and (= _for_it_99 _for_it_100_1) (= tmp_parfor_52_0 _for_it_102_1) (= _for_it_99 _for_it_101_1))) (<= _for_it_102_1 (+ kfdia (- 1))) (<= (+ _for_it_99 2) _for_it_100_1) (<= tmp_parfor_52_0 (+ kfdia (- 1))))) (exists ((_for_it_101_0 Int)(_for_it_102_0 Int)(_for_it_100_0 Int)(_for_it_100_1 Int)(tmp_parfor_52_1 Int)) (and (<= _for_it_101_0 4) (<= (+ _for_it_99 1) _for_it_100_0) (<= _for_it_100_0 4) (<= tmp_parfor_52_1 (+ kfdia (- 1))) (<= _for_it_102_0 (+ kfdia (- 1))) (<= (+ kidia (- 1)) _for_it_102_0) (<= (+ kidia (- 1)) tmp_parfor_52_1) (<= _for_it_100_1 4) (or (and (= _for_it_102_0 tmp_parfor_52_1) (= _for_it_101_0 (+ _for_it_99 1)) (= _for_it_100_0 (+ _for_it_99 1))) (and (= _for_it_102_0 tmp_parfor_52_1) (= _for_it_101_0 (+ _for_it_99 1)) (= _for_it_99 _for_it_100_1)) (and (= _for_it_102_0 tmp_parfor_52_1) (= _for_it_99 (+ _for_it_99 1)) (= _for_it_100_0 _for_it_100_1)) (and (= _for_it_102_0 tmp_parfor_52_1) (= _for_it_101_0 (+ _for_it_99 1)) (= _for_it_100_0 _for_it_100_1))) (<= (+ _for_it_99 1) _for_it_101_0) (<= (+ _for_it_99 2) _for_it_100_1)))))
      (<= ncldtop (+ klev (- 1)))
    )
    false
  )
))

(check-sat)